c File: data_files/evolved_graphs/g3858.col
c
c Auto generated graph
c
p edge 100 1687
e 1 3
e 1 4
e 1 19
e 1 22
e 1 40
e 1 72
e 1 87
e 1 89
e 1 99
e 1 100
e 2 6
e 2 11
e 2 18
e 2 56
e 2 63
e 2 84
e 2 98
e 2 99
e 2 100
e 3 8
e 3 27
e 3 54
e 3 58
e 3 64
e 4 19
e 4 29
e 4 42
e 4 64
e 4 76
e 4 82
e 4 95
e 6 10
e 6 14
e 6 20
e 6 33
e 6 45
e 6 65
e 7 11
e 7 14
e 7 20
e 7 22
e 7 27
e 7 28
e 7 31
e 7 34
e 7 35
e 7 36
e 7 38
e 7 43
e 7 46
e 7 57
e 7 58
e 7 62
e 7 66
e 7 68
e 7 70
e 7 71
e 7 72
e 7 73
e 7 75
e 7 95
e 7 97
e 7 98
e 7 99
e 8 10
e 8 12
e 8 16
e 8 18
e 8 19
e 8 22
e 8 28
e 8 31
e 8 32
e 8 34
e 8 36
e 8 38
e 8 40
e 8 43
e 8 46
e 8 56
e 8 63
e 8 70
e 8 77
e 8 88
e 9 12
e 9 16
e 9 20
e 9 22
e 9 23
e 9 25
e 9 28
e 9 29
e 9 32
e 9 34
e 9 35
e 9 38
e 9 39
e 9 45
e 9 47
e 9 51
e 9 52
e 9 55
e 9 62
e 9 74
e 9 78
e 9 88
e 9 90
e 9 91
e 9 97
e 10 12
e 10 15
e 10 16
e 10 26
e 10 29
e 10 30
e 10 31
e 10 38
e 10 41
e 10 47
e 10 52
e 10 57
e 10 67
e 10 75
e 10 92
e 10 94
e 10 98
e 11 12
e 11 13
e 11 14
e 11 16
e 11 22
e 11 27
e 11 30
e 11 36
e 11 37
e 11 38
e 11 41
e 11 48
e 11 50
e 11 56
e 11 64
e 11 66
e 11 70
e 11 71
e 11 72
e 11 80
e 11 91
e 12 16
e 12 18
e 12 22
e 12 23
e 12 27
e 12 29
e 12 30
e 12 31
e 12 32
e 12 36
e 12 38
e 12 39
e 12 40
e 12 41
e 12 43
e 12 49
e 12 54
e 12 59
e 12 62
e 12 64
e 12 65
e 12 73
e 12 77
e 12 84
e 12 93
e 12 99
e 13 14
e 13 23
e 13 27
e 13 30
e 13 31
e 13 32
e 13 33
e 13 35
e 13 47
e 13 49
e 13 57
e 13 58
e 13 60
e 13 67
e 13 72
e 13 91
e 13 93
e 13 97
e 13 99
e 14 21
e 14 36
e 14 39
e 14 43
e 14 44
e 14 46
e 14 47
e 14 49
e 14 50
e 14 54
e 14 57
e 14 58
e 14 62
e 14 64
e 14 90
e 14 92
e 14 93
e 14 95
e 14 100
e 15 16
e 15 20
e 15 21
e 15 22
e 15 29
e 15 30
e 15 38
e 15 44
e 15 46
e 15 57
e 15 58
e 15 61
e 15 62
e 15 65
e 15 66
e 15 67
e 15 70
e 15 71
e 15 72
e 15 73
e 15 74
e 15 75
e 15 76
e 15 80
e 15 83
e 15 85
e 15 86
e 15 87
e 15 88
e 15 89
e 15 91
e 15 94
e 15 95
e 15 100
e 16 19
e 16 24
e 16 26
e 16 29
e 16 31
e 16 32
e 16 34
e 16 36
e 16 40
e 16 44
e 16 47
e 16 48
e 16 49
e 16 50
e 16 51
e 16 52
e 16 53
e 16 60
e 16 68
e 16 69
e 16 70
e 16 71
e 16 72
e 16 73
e 16 76
e 16 78
e 16 84
e 16 85
e 16 86
e 16 88
e 16 89
e 16 92
e 16 93
e 17 18
e 17 19
e 17 24
e 17 26
e 17 28
e 17 29
e 17 32
e 17 34
e 17 35
e 17 50
e 17 52
e 17 54
e 17 55
e 17 56
e 17 57
e 17 60
e 17 66
e 17 67
e 17 68
e 17 69
e 17 70
e 17 71
e 17 72
e 17 74
e 17 76
e 17 77
e 17 79
e 17 87
e 17 88
e 17 90
e 17 93
e 17 94
e 17 95
e 17 96
e 17 99
e 17 100
e 18 19
e 18 21
e 18 28
e 18 30
e 18 31
e 18 34
e 18 37
e 18 49
e 18 55
e 18 57
e 18 58
e 18 60
e 18 65
e 18 66
e 18 67
e 18 70
e 18 71
e 18 72
e 18 73
e 18 74
e 18 77
e 18 79
e 18 88
e 18 90
e 18 91
e 18 93
e 18 94
e 18 98
e 18 99
e 18 100
e 19 25
e 19 27
e 19 33
e 19 41
e 19 49
e 19 52
e 19 56
e 19 62
e 19 66
e 19 67
e 19 68
e 19 69
e 19 70
e 19 71
e 19 74
e 19 78
e 19 79
e 19 88
e 19 89
e 19 90
e 19 92
e 19 93
e 19 95
e 19 96
e 19 100
e 20 24
e 20 27
e 20 32
e 20 33
e 20 36
e 20 46
e 20 48
e 20 58
e 20 59
e 20 61
e 20 66
e 20 68
e 20 70
e 20 71
e 20 72
e 20 74
e 20 75
e 20 76
e 20 77
e 20 78
e 20 81
e 20 82
e 20 83
e 20 84
e 20 86
e 20 88
e 20 89
e 20 97
e 21 22
e 21 24
e 21 25
e 21 26
e 21 27
e 21 35
e 21 39
e 21 40
e 21 41
e 21 42
e 21 49
e 21 52
e 21 61
e 21 66
e 21 70
e 21 71
e 21 72
e 21 73
e 21 76
e 21 77
e 21 78
e 21 79
e 21 84
e 21 86
e 21 87
e 21 88
e 21 89
e 21 90
e 21 93
e 21 96
e 22 23
e 22 25
e 22 28
e 22 30
e 22 36
e 22 40
e 22 42
e 22 44
e 22 46
e 22 51
e 22 52
e 22 53
e 22 54
e 22 58
e 22 61
e 22 65
e 22 68
e 22 69
e 22 71
e 22 75
e 22 76
e 22 77
e 22 78
e 22 81
e 22 84
e 22 85
e 22 86
e 22 87
e 22 90
e 22 91
e 22 93
e 22 94
e 23 24
e 23 27
e 23 28
e 23 31
e 23 33
e 23 36
e 23 37
e 23 39
e 23 48
e 23 49
e 23 50
e 23 52
e 23 53
e 23 54
e 23 56
e 23 60
e 23 67
e 23 69
e 23 70
e 23 71
e 23 75
e 23 76
e 23 78
e 23 79
e 23 81
e 23 83
e 23 84
e 23 85
e 23 86
e 23 87
e 23 88
e 23 91
e 23 92
e 23 93
e 23 96
e 23 97
e 24 27
e 24 29
e 24 36
e 24 37
e 24 38
e 24 46
e 24 48
e 24 51
e 24 53
e 24 56
e 24 60
e 24 62
e 24 63
e 24 66
e 24 69
e 24 70
e 24 71
e 24 72
e 24 73
e 24 76
e 24 77
e 24 78
e 24 79
e 24 81
e 24 84
e 24 86
e 24 88
e 24 89
e 24 90
e 24 91
e 24 92
e 24 94
e 24 95
e 24 96
e 24 97
e 24 98
e 24 100
e 25 27
e 25 29
e 25 36
e 25 37
e 25 38
e 25 39
e 25 40
e 25 47
e 25 55
e 25 63
e 25 66
e 25 68
e 25 70
e 25 71
e 25 72
e 25 73
e 25 75
e 25 76
e 25 77
e 25 78
e 25 79
e 25 80
e 25 81
e 25 82
e 25 83
e 25 84
e 25 86
e 25 87
e 25 94
e 25 95
e 25 97
e 25 98
e 25 99
e 25 100
e 26 29
e 26 35
e 26 36
e 26 38
e 26 40
e 26 42
e 26 50
e 26 51
e 26 53
e 26 57
e 26 61
e 26 63
e 26 66
e 26 67
e 26 68
e 26 69
e 26 71
e 26 72
e 26 73
e 26 74
e 26 75
e 26 77
e 26 78
e 26 80
e 26 81
e 26 82
e 26 83
e 26 84
e 26 85
e 26 86
e 26 87
e 26 88
e 26 89
e 26 92
e 26 98
e 27 33
e 27 36
e 27 37
e 27 38
e 27 39
e 27 41
e 27 43
e 27 44
e 27 45
e 27 46
e 27 48
e 27 53
e 27 58
e 27 62
e 27 66
e 27 67
e 27 72
e 27 75
e 27 76
e 27 77
e 27 78
e 27 80
e 27 82
e 27 83
e 27 85
e 27 86
e 27 88
e 27 91
e 27 93
e 27 97
e 27 98
e 27 99
e 27 100
e 28 29
e 28 32
e 28 37
e 28 45
e 28 47
e 28 49
e 28 53
e 28 59
e 28 62
e 28 65
e 28 66
e 28 67
e 28 69
e 28 70
e 28 73
e 28 74
e 28 75
e 28 79
e 28 80
e 28 81
e 28 82
e 28 83
e 28 85
e 28 89
e 28 91
e 28 94
e 28 96
e 29 30
e 29 32
e 29 33
e 29 37
e 29 38
e 29 47
e 29 53
e 29 58
e 29 66
e 29 67
e 29 69
e 29 74
e 29 75
e 29 77
e 29 78
e 29 80
e 29 81
e 29 82
e 29 85
e 29 89
e 29 90
e 29 93
e 29 96
e 29 97
e 29 99
e 29 100
e 30 33
e 30 34
e 30 38
e 30 40
e 30 45
e 30 47
e 30 48
e 30 49
e 30 52
e 30 53
e 30 55
e 30 58
e 30 59
e 30 61
e 30 62
e 30 63
e 30 65
e 30 67
e 30 70
e 30 72
e 30 73
e 30 75
e 30 76
e 30 77
e 30 78
e 30 81
e 30 82
e 30 84
e 30 87
e 30 91
e 30 92
e 30 95
e 30 99
e 30 100
e 31 34
e 31 35
e 31 36
e 31 37
e 31 40
e 31 41
e 31 42
e 31 43
e 31 44
e 31 45
e 31 48
e 31 50
e 31 51
e 31 53
e 31 55
e 31 56
e 31 62
e 31 64
e 31 65
e 31 67
e 31 69
e 31 72
e 31 75
e 31 83
e 31 85
e 31 87
e 31 91
e 31 95
e 31 97
e 31 99
e 31 100
e 32 33
e 32 34
e 32 37
e 32 38
e 32 40
e 32 41
e 32 42
e 32 46
e 32 48
e 32 52
e 32 54
e 32 55
e 32 57
e 32 59
e 32 73
e 32 74
e 32 75
e 32 81
e 32 83
e 32 84
e 32 85
e 32 86
e 32 89
e 32 90
e 32 91
e 32 93
e 32 96
e 33 35
e 33 37
e 33 39
e 33 48
e 33 52
e 33 53
e 33 54
e 33 55
e 33 61
e 33 62
e 33 63
e 33 64
e 33 65
e 33 66
e 33 72
e 33 73
e 33 74
e 33 77
e 33 78
e 33 79
e 33 81
e 33 82
e 33 85
e 33 88
e 33 89
e 33 91
e 33 93
e 33 94
e 33 99
e 33 100
e 34 40
e 34 47
e 34 50
e 34 53
e 34 57
e 34 62
e 34 63
e 34 64
e 34 65
e 34 66
e 34 67
e 34 69
e 34 74
e 34 75
e 34 76
e 34 80
e 34 82
e 34 84
e 34 89
e 34 90
e 34 91
e 34 93
e 34 94
e 34 96
e 34 98
e 35 37
e 35 38
e 35 44
e 35 51
e 35 52
e 35 53
e 35 55
e 35 66
e 35 68
e 35 70
e 35 71
e 35 74
e 35 78
e 35 79
e 35 83
e 35 84
e 35 85
e 35 86
e 35 87
e 35 88
e 35 89
e 35 92
e 35 94
e 35 95
e 35 98
e 35 99
e 36 38
e 36 39
e 36 50
e 36 52
e 36 60
e 36 62
e 36 64
e 36 68
e 36 69
e 36 71
e 36 73
e 36 74
e 36 75
e 36 77
e 36 78
e 36 79
e 36 83
e 36 85
e 36 86
e 36 99
e 37 39
e 37 44
e 37 45
e 37 57
e 37 59
e 37 64
e 37 68
e 37 69
e 37 71
e 37 72
e 37 73
e 37 75
e 37 77
e 37 78
e 37 84
e 37 86
e 37 87
e 37 90
e 37 92
e 37 93
e 37 94
e 37 95
e 37 98
e 37 99
e 38 43
e 38 47
e 38 49
e 38 54
e 38 56
e 38 59
e 38 64
e 38 65
e 38 67
e 38 70
e 38 74
e 38 75
e 38 76
e 38 78
e 38 79
e 38 85
e 38 87
e 38 88
e 38 90
e 38 91
e 38 92
e 38 94
e 38 96
e 38 97
e 38 98
e 38 99
e 38 100
e 39 43
e 39 44
e 39 54
e 39 55
e 39 57
e 39 58
e 39 62
e 39 65
e 39 66
e 39 67
e 39 68
e 39 70
e 39 71
e 39 74
e 39 76
e 39 77
e 39 90
e 39 92
e 39 93
e 39 99
e 40 41
e 40 45
e 40 55
e 40 56
e 40 61
e 40 68
e 40 69
e 40 70
e 40 72
e 40 75
e 40 76
e 40 77
e 40 78
e 40 80
e 40 82
e 40 83
e 40 86
e 40 88
e 40 89
e 40 91
e 40 92
e 40 96
e 41 43
e 41 48
e 41 49
e 41 55
e 41 56
e 41 57
e 41 59
e 41 61
e 41 62
e 41 66
e 41 68
e 41 69
e 41 72
e 41 76
e 41 78
e 41 79
e 41 83
e 41 85
e 41 87
e 41 89
e 41 91
e 41 92
e 41 96
e 41 98
e 41 99
e 42 47
e 42 48
e 42 54
e 42 55
e 42 56
e 42 60
e 42 63
e 42 74
e 42 75
e 42 76
e 42 81
e 42 82
e 42 83
e 42 84
e 42 85
e 42 86
e 42 89
e 42 91
e 42 93
e 42 94
e 42 96
e 42 97
e 42 98
e 42 99
e 42 100
e 43 45
e 43 49
e 43 52
e 43 53
e 43 55
e 43 56
e 43 57
e 43 58
e 43 59
e 43 63
e 43 64
e 43 69
e 43 70
e 43 73
e 43 74
e 43 81
e 43 82
e 43 84
e 43 85
e 43 86
e 43 90
e 43 91
e 43 94
e 43 96
e 43 98
e 43 99
e 44 47
e 44 48
e 44 54
e 44 61
e 44 64
e 44 68
e 44 69
e 44 74
e 44 75
e 44 77
e 44 79
e 44 80
e 44 87
e 44 88
e 44 89
e 44 90
e 44 92
e 44 93
e 44 96
e 44 98
e 44 99
e 45 46
e 45 47
e 45 56
e 45 57
e 45 58
e 45 59
e 45 61
e 45 66
e 45 68
e 45 69
e 45 71
e 45 78
e 45 79
e 45 83
e 45 85
e 45 87
e 45 88
e 45 89
e 45 90
e 45 92
e 45 95
e 45 97
e 45 100
e 46 47
e 46 52
e 46 53
e 46 59
e 46 68
e 46 70
e 46 75
e 46 85
e 46 87
e 46 92
e 46 95
e 46 96
e 46 97
e 46 100
e 47 51
e 47 52
e 47 54
e 47 59
e 47 63
e 47 64
e 47 65
e 47 67
e 47 72
e 47 74
e 47 75
e 47 76
e 47 77
e 47 78
e 47 80
e 47 83
e 47 85
e 47 87
e 47 88
e 47 89
e 47 91
e 47 92
e 47 93
e 47 95
e 47 96
e 47 99
e 47 100
e 48 50
e 48 51
e 48 52
e 48 53
e 48 54
e 48 56
e 48 58
e 48 60
e 48 62
e 48 63
e 48 65
e 48 67
e 48 69
e 48 70
e 48 71
e 48 75
e 48 83
e 48 87
e 48 91
e 48 92
e 48 96
e 48 100
e 49 50
e 49 52
e 49 53
e 49 54
e 49 55
e 49 57
e 49 59
e 49 61
e 49 62
e 49 63
e 49 72
e 49 80
e 49 83
e 49 88
e 49 93
e 49 97
e 49 98
e 50 53
e 50 57
e 50 60
e 50 61
e 50 62
e 50 69
e 50 75
e 50 76
e 50 79
e 50 83
e 50 89
e 50 91
e 50 93
e 50 94
e 50 99
e 51 53
e 51 55
e 51 57
e 51 59
e 51 60
e 51 61
e 51 62
e 51 66
e 51 67
e 51 68
e 51 69
e 51 70
e 51 71
e 51 74
e 51 75
e 51 76
e 51 79
e 51 80
e 51 83
e 51 87
e 51 88
e 51 89
e 51 90
e 51 91
e 51 92
e 51 95
e 51 96
e 51 98
e 51 99
e 52 53
e 52 56
e 52 62
e 52 68
e 52 69
e 52 70
e 52 72
e 52 75
e 52 76
e 52 77
e 52 80
e 52 83
e 52 84
e 52 85
e 52 86
e 52 87
e 52 88
e 52 89
e 52 90
e 52 92
e 52 93
e 52 94
e 52 96
e 52 99
e 53 57
e 53 62
e 53 68
e 53 69
e 53 70
e 53 72
e 53 75
e 53 79
e 53 80
e 53 81
e 53 83
e 53 85
e 53 86
e 53 88
e 53 89
e 53 90
e 53 92
e 53 96
e 53 97
e 53 99
e 54 56
e 54 57
e 54 61
e 54 68
e 54 70
e 54 72
e 54 73
e 54 75
e 54 77
e 54 78
e 54 79
e 54 83
e 54 86
e 54 87
e 54 90
e 54 93
e 54 94
e 54 95
e 54 96
e 54 97
e 54 98
e 54 99
e 55 57
e 55 58
e 55 61
e 55 68
e 55 70
e 55 71
e 55 72
e 55 73
e 55 74
e 55 76
e 55 77
e 55 78
e 55 79
e 55 80
e 55 81
e 55 82
e 55 83
e 55 84
e 55 85
e 55 88
e 55 92
e 55 94
e 55 95
e 55 96
e 55 97
e 56 58
e 56 69
e 56 70
e 56 71
e 56 74
e 56 75
e 56 81
e 56 86
e 56 87
e 56 90
e 56 91
e 56 92
e 56 95
e 56 96
e 56 97
e 56 100
e 57 61
e 57 63
e 57 65
e 57 66
e 57 67
e 57 69
e 57 70
e 57 71
e 57 73
e 57 74
e 57 76
e 57 77
e 57 82
e 57 83
e 57 84
e 57 85
e 57 86
e 57 87
e 57 90
e 57 93
e 57 95
e 57 96
e 57 99
e 57 100
e 58 60
e 58 67
e 58 73
e 58 76
e 58 78
e 58 80
e 58 83
e 58 84
e 58 85
e 58 86
e 58 87
e 58 89
e 58 90
e 58 92
e 58 93
e 58 95
e 58 96
e 58 97
e 58 98
e 59 60
e 59 62
e 59 65
e 59 66
e 59 67
e 59 68
e 59 69
e 59 70
e 59 71
e 59 72
e 59 73
e 59 74
e 59 78
e 59 84
e 59 85
e 59 89
e 59 90
e 59 91
e 59 92
e 59 94
e 59 96
e 59 97
e 59 99
e 59 100
e 60 65
e 60 68
e 60 69
e 60 72
e 60 73
e 60 76
e 60 82
e 60 83
e 60 88
e 60 91
e 60 93
e 60 95
e 60 97
e 60 98
e 60 99
e 60 100
e 61 67
e 61 68
e 61 69
e 61 70
e 61 73
e 61 74
e 61 75
e 61 76
e 61 79
e 61 81
e 61 86
e 61 87
e 61 88
e 61 95
e 61 96
e 61 98
e 61 99
e 62 63
e 62 67
e 62 69
e 62 71
e 62 72
e 62 73
e 62 74
e 62 78
e 62 79
e 62 92
e 62 93
e 62 94
e 62 95
e 62 98
e 62 100
e 63 64
e 63 65
e 63 69
e 63 71
e 63 73
e 63 74
e 63 82
e 63 84
e 63 86
e 63 87
e 63 88
e 63 89
e 63 90
e 63 92
e 63 93
e 63 94
e 63 95
e 63 96
e 63 98
e 64 66
e 64 68
e 64 69
e 64 70
e 64 72
e 64 74
e 64 80
e 64 83
e 64 87
e 64 89
e 64 90
e 64 92
e 64 93
e 64 94
e 64 97
e 64 99
e 65 66
e 65 70
e 65 71
e 65 72
e 65 73
e 65 82
e 65 85
e 65 91
e 65 92
e 65 93
e 65 94
e 65 95
e 65 98
e 65 99
e 66 69
e 66 70
e 66 71
e 66 73
e 66 74
e 66 76
e 66 77
e 66 80
e 66 83
e 66 85
e 66 86
e 66 89
e 66 90
e 66 91
e 66 92
e 66 93
e 66 94
e 66 96
e 66 97
e 66 98
e 66 99
e 66 100
e 67 73
e 67 75
e 67 77
e 67 78
e 67 84
e 67 92
e 67 93
e 67 94
e 67 97
e 67 98
e 67 99
e 67 100
e 68 69
e 68 71
e 68 72
e 68 74
e 68 81
e 68 87
e 68 89
e 68 91
e 68 92
e 68 93
e 68 94
e 68 96
e 69 71
e 69 72
e 69 82
e 69 83
e 69 85
e 69 86
e 69 94
e 69 98
e 70 71
e 70 73
e 70 75
e 70 76
e 70 79
e 70 85
e 70 88
e 70 91
e 70 92
e 70 94
e 70 97
e 71 72
e 71 73
e 71 77
e 71 78
e 71 82
e 71 84
e 71 85
e 71 90
e 71 94
e 71 95
e 71 97
e 72 73
e 72 75
e 72 79
e 72 88
e 72 89
e 72 96
e 72 97
e 72 99
e 73 74
e 73 77
e 73 83
e 73 87
e 73 88
e 73 92
e 73 96
e 73 97
e 74 81
e 74 82
e 74 84
e 74 86
e 74 88
e 74 89
e 74 93
e 74 94
e 74 97
e 74 99
e 75 76
e 75 83
e 75 84
e 75 86
e 75 88
e 75 96
e 76 79
e 76 87
e 76 91
e 76 99
e 77 80
e 77 84
e 77 85
e 77 90
e 77 92
e 77 95
e 77 97
e 77 98
e 78 79
e 78 80
e 78 84
e 78 86
e 78 89
e 78 90
e 78 93
e 78 94
e 78 95
e 78 96
e 79 81
e 79 85
e 79 86
e 79 88
e 79 89
e 79 90
e 79 98
e 80 90
e 80 91
e 80 93
e 80 98
e 80 99
e 81 84
e 81 85
e 81 89
e 81 91
e 81 92
e 81 94
e 81 99
e 82 85
e 82 86
e 82 87
e 82 94
e 83 85
e 83 87
e 83 90
e 83 95
e 83 96
e 83 98
e 83 100
e 84 94
e 84 96
e 84 98
e 85 88
e 85 90
e 85 92
e 85 94
e 85 97
e 86 87
e 86 89
e 86 90
e 86 97
e 86 98
e 87 93
e 87 95
e 87 96
e 87 100
e 88 96
e 89 93
e 89 97
e 90 92
e 90 93
e 90 95
e 90 100
e 91 92
e 91 95
e 92 94
e 92 96
e 92 97
e 92 100
e 93 94
e 93 99
e 93 100
e 94 96
e 94 97
e 95 100
e 96 98
e 96 100
e 98 100
